# Objective value = 3.0655109127486116e+02
x[0] 0
x[1] 1
x[2] 1
x[3] 1
x[4] 1
x[5] 0
x[6] 0
x[7] 1
x[8] 1
x[9] 0
x[10] 0
x[11] 0
x[12] 1
x[13] 1
x[14] 1
x[15] 1
x[16] 1
x[17] 0
x[18] 1
x[19] 0
x[20] 0
x[21] 1
x[22] 0
x[23] 0
x[24] 9.9999960470588267e-01
x[25] 0
x[26] 0
x[27] 0
x[28] 6.5725757668155571e-08
x[29] 1
x[30] 1
x[31] 1
x[32] 1
x[33] 1
x[34] 1
x[35] 0
x[36] 0
x[37] 0
x[38] 0
x[39] 1
x[40] 0
x[41] 1
x[42] 0
x[43] 0
x[44] 0
x[45] 9.9999947625780161e-01
x[46] 0
x[47] 0
x[48] 0
x[49] 1
x[50] 1
x[51] 0
x[52] 0
x[53] 0
x[54] -2.9647058796822279e-07
x[55] 1.6269324215446002e-08
x[56] 0
x[57] 0
x[58] 0
x[59] 0
x[60] 1
x[61] 1
x[62] 0
x[63] 1
x[64] 0
x[65] 1
x[66] 1
x[67] 1.0000001315878024e+00
x[68] 1
x[69] 0
x[70] 4.1157001021607049e-07
x[71] 1
x[72] 1
x[73] 1
x[74] 0
x[75] 1
x[76] 0
x[77] 1
x[78] 0.99999947627451
x[79] 9.9999997039215727e-01
x[80] 0
x[81] 1
x[82] 0
x[83] 1
x[84] 1
x[85] 0
x[86] 1
x[87] 0
x[88] 0
x[89] 9.9999960470588267e-01
x[90] 5.2693478686137487e-07
x[91] 0
x[92] 1
x[93] 1
x[94] 1
x[95] 0
x[96] 1
x[97] 1
x[98] 0
x[99] 5.2670273179704893e-07
x[100] 1
x[101] 5.2647711564655322e-07
x[102] 1
x[103] 0
x[104] 1
x[105] 0
x[106] 0
x[107] 1
x[108] 1
x[109] 1
x[110] 1
x[111] 1
x[112] 1
x[113] 1
x[114] 1
x[115] 0
x[116] 0
x[117] 0
x[118] 1
x[119] 1
x[120] 1
x[121] 1
x[122] 1.0000000328686269e+00
x[123] 3.2805463253899192e-08
x[124] 0
x[125] 9.9999973647058826e-01
x[126] 0
x[127] 1
x[128] 1
x[129] 1
x[130] 0
x[131] 0
x[132] 0
x[133] 0
x[134] 1
x[135] 0
x[136] 0
x[137] -1.6137254875250269e-07
x[138] 0
x[139] 1
x[140] 1
x[141] 1
x[142] 0
x[143] 1
x[144] 1
x[145] 0
x[146] 0
x[147] 0
x[148] 1
x[149] 0
x[150] 0
x[151] 0
x[152] 0
x[153] 1
x[154] 9.9999997039215727e-01
x[155] 0
x[156] 0
x[157] 0
x[158] 0
x[159] 0
x[160] 1
x[161] 0
x[162] 5.2695652977407467e-07
x[163] 0
x[164] 1
x[165] 0
x[166] 1
x[167] 0
x[168] 9.9999983862745190e-01
x[169] 0
x[170] 4.6079935625750282e-07
x[171] -3.2941176118447824e-08
x[172] 0
x[173] 0
x[174] 5.2698838224685144e-07
x[175] 3.9492076942142131e-07
x[176] 0
x[177] 9.9999993745098126e-01
x[178] 1
x[179] 1
x[180] -3.2941176092426971e-08
x[181] 4.2816400778460521e-07
x[182] 1
x[183] 5.2699013833540864e-07
x[184] 0
x[185] 1
x[186] -2.3058823564459097e-07
x[187] 1
x[188] 1
x[189] 0
x[190] 0
x[191] 1
x[192] 0
x[193] 9.9999998686274483e-01
x[194] 1
x[195] 0
x[196] 1
x[197] 1
x[198] 0
x[199] 1
x[200] 1
x[201] 9.9999960803921606e-01
x[202] 0
x[203] 1
x[204] 0
x[205] 1
x[206] 0
x[207] 0
x[208] 1
x[209] 1
x[210] 0
x[211] 0
x[212] 1
x[213] 0
x[214] 1
x[215] 1
x[216] 0
x[217] 0
x[218] 9.9999947627450991e-01
x[219] 0
x[220] 1
x[221] 0
x[222] 9.9999973980392176e-01
x[223] 0
x[224] 1
x[225] 1
x[226] 0
x[227] 0
x[228] 0
x[229] 1
x[230] 1.0000002305351361e+00
x[231] 0
x[232] 0
x[233] 9.9999993743651949e-01
x[234] 1
x[235] 1
x[236] 9.86629975484115e-08
x[237] 1
x[238] 1
x[239] 0
x[240] 0
x[241] 1
x[242] 0
x[243] 1.0000000328048373e+00
x[244] 1
x[245] 1
x[246] 0
x[247] 1
x[248] 0
x[249] 1
x[250] 1
x[251] 0
x[252] 0
x[253] 1
x[254] -3.2941176088957524e-08
x[255] 3.9523181653210911e-07
x[256] 1
x[257] 1.0000001645418126e+00
x[258] 0
x[259] 0
x[260] 1
x[261] 1
x[262] 0
x[263] 9.9999960803921606e-01
x[264] 1
x[265] 0
x[266] 0
x[267] 1
x[268] 0
x[269] 1
x[270] 0
x[271] 0
x[272] 9.9999957509803994e-01
x[273] 1
x[274] 0
x[275] 0
x[276] 1
x[277] 1
x[278] 1
x[279] 0
x[280] 0
x[281] 9.9999998352941188e-01
x[282] 1
x[283] 1
x[284] 1
x[285] 0
x[286] 1
x[287] 0
x[288] 1
x[289] 1.0000002305243534e+00
x[290] 1
x[291] 0
x[292] 9.9999957509803994e-01
x[293] 9.9999987323529538e-01
x[294] 0
x[295] 0
x[296] 1
x[297] 1
x[298] 1
x[299] 0
x[300] 0
x[301] 0
x[302] 0
x[303] 1
x[304] 1
x[305] 0
x[306] 1
x[307] 1
x[308] 0
x[309] 1
x[310] 1
x[311] -2.2725490231125763e-07
x[312] 1
x[313] 0
x[314] 0
x[315] 1
x[316] 1
x[317] -2.2756337428270012e-07
x[318] 0
x[319] 1
x[320] 1
x[321] 1.0000000328265919e+00
x[322] 0
x[323] 0
x[324] 0
x[325] 0.999999476343195
x[326] 0
x[327] 0
x[328] 0
x[329] 1
x[330] 0
x[331] 1
x[332] 0
x[333] 1
x[334] 0
x[335] 9.9999990617647150e-01
x[336] 0
x[337] 0
x[338] 0
x[339] 3.9522171816798659e-07
x[340] 0
x[341] 1
x[342] 0
x[343] 0
x[344] 0
x[345] 0
x[346] 1
x[347] 0
x[348] 1
x[349] -1.3176470592402012e-07
x[350] 0
x[351] 9.8762778065039515e-08
x[352] 1
x[353] 1
x[354] 0
x[355] 1
x[356] 0
x[357] 1
x[358] 0
x[359] 1
x[360] 1
x[361] 1
x[362] 0
x[363] 0
x[364] 1.0000003950407885e+00
x[365] 1
x[366] 0
x[367] 1
x[368] 0
x[369] 1
x[370] 1.0000000328784073e+00
x[371] 1
x[372] 0
x[373] 1
x[374] 0
x[375] 0
x[376] 0
x[377] -2.3058823564459097e-07
x[378] 0
x[379] 1
x[380] 0
x[381] 0
x[382] 1
x[383] 4.2817605584902967e-07
x[384] 0
x[385] 0
x[386] 0
x[387] 9.9999993745098126e-01
x[388] -2.9313725463488945e-07
x[389] 0
x[390] 6.5775914230446760e-08
x[391] 3.2889365390680472e-08
x[392] 0
x[393] 0
x[394] 0
x[395] 1
x[396] 1
x[397] 0
x[398] -1.2843137259068678e-07
x[399] 1
x[400] 0
x[401] 1
x[402] 0
x[403] 3.2847683479288583e-08
x[404] 0
x[405] 0
x[406] 1
x[407] 1
x[408] 0
x[409] 1
x[410] 1
x[411] 1
x[412] 0
x[413] 0
x[414] 1
x[415] 0
x[416] 1
x[417] 1
x[418] 1
x[419] 1
x[420] 1
x[421] 1.0000000491045424e+00
x[422] 1
x[423] 1
x[424] 3.9523579258560345e-07
x[425] 1
x[426] -3.2941176036915820e-08
x[427] 0
x[428] 0
x[429] 0
x[430] 1
x[431] 0
x[432] 1
x[433] 0
x[434] 0
x[435] 9.9999960803921606e-01
x[436] 0
x[437] 9.9999997044396793e-01
x[438] 1
x[439] 1
x[440] 1
x[441] 0
x[442] 1
x[443] 0
x[444] 0
x[445] 0
x[446] 1
x[447] 1
x[448] 1
x[449] 0
x[450] 9.8533924130664007e-08
x[451] 0
x[452] 0
x[453] 0
x[454] 9.9999990377855130e-01
x[455] 0
x[456] -3.2941176092426971e-08
x[457] 1
x[458] 1
x[459] 1
x[460] 0
x[461] 0
x[462] 0
x[463] 0
x[464] 1
x[465] 1
x[466] 0
x[467] 1
x[468] 0
x[469] 1
x[470] 0
x[471] 0
x[472] 1
x[473] 0
x[474] 0
x[475] 0
x[476] 0
x[477] 0
x[478] 1
x[479] 1
x[480] 1
x[481] 1
x[482] 0
x[483] 1
x[484] 1
x[485] 1.64653448109538e-07
x[486] 0
x[487] 1
x[488] 0
x[489] 1
x[490] 9.9999996705882388e-01
x[491] 0
x[492] 0
x[493] 1
x[494] 1
x[495] 1
x[496] 1
x[497] 0
x[498] 0
x[499] 0
x[500] 1
x[501] 0
x[502] 0
x[503] 1
x[504] 1
x[505] 0
x[506] 0
x[507] 1
x[508] 0
x[509] 1
x[510] 1
x[511] 0
x[512] 1
x[513] 1
x[514] 0
x[515] 9.9999960803921606e-01
x[516] -3.9529411732797115e-07
x[517] 1
x[518] 1
x[519] 1
x[520] 0
x[521] 1
x[522] 1
x[523] 0
x[524] 1
x[525] 1
x[526] 1
x[527] 0
x[528] 0
x[529] 0
x[530] 1
x[531] 4.2815212222272064e-07
x[532] -3.2941175839157344e-08
x[533] 1
x[534] 1
x[535] 0
x[536] 0
x[537] 0
x[538] 3.2872974405351658e-08
x[539] 1
x[540] 0
x[541] 9.9999960470588267e-01
x[542] 0
x[543] 1
x[544] 1
x[545] 1
x[546] 0
x[547] 0
x[548] 1
x[549] 0
x[550] 0
x[551] 5.2696246112843474e-07
x[552] 0
x[553] 1
x[554] 1
x[555] 1
x[556] 0
x[557] 1
x[558] 0
x[559] 0
x[560] 6.5831285873274270e-08
x[561] -2.9647058782944491e-07
x[562] 1
x[563] 9.9999990450980492e-01
x[564] 1
x[565] 5.2629660760493126e-07
x[566] 0
x[567] 0
x[568] 1
x[569] 1
x[570] 0
x[571] 0
x[572] 1
x[573] 9.9999957186106836e-01
x[574] 0
x[575] 0
x[576] 1
x[577] 1.0000001317060654e+00
x[578] 1
x[579] 0
x[580] 1
x[581] 9.9999960809754074e-01
x[582] -3.2941176092426971e-08
x[583] 0
x[584] 1
x[585] 9.9999990117647153e-01
x[586] 0
x[587] 9.9999990479940926e-01
x[588] -2.8042196523593890e-08
x[589] 0
x[590] 1
x[591] 0
x[592] 0
x[593] 0
x[594] 1
x[595] 0
x[596] 0
x[597] 1
x[598] 1
x[599] 0
x[600] 0
x[601] 0
x[602] 1
x[603] 0
x[604] 3.2861950128874783e-08
x[605] 0
x[606] 9.9999997039215727e-01
x[607] 1
x[608] 1
x[609] 1
x[610] 1
x[611] -2.2719101989881528e-07
x[612] 9.9999993745098126e-01
x[613] 0
x[614] 0
x[615] 0
x[616] 0
x[617] 0
x[618] 0
x[619] 0
x[620] 1
x[621] 0
x[622] 1
x[623] 1
x[624] 1
x[625] 1
x[626] 0
x[627] 1
x[628] 0
x[629] 1
x[630] 0
x[631] 0
x[632] 0
x[633] 0
x[634] 1.0000001316821232e+00
x[635] 0
x[636] 0
x[637] 1
x[638] 0
x[639] 0
x[640] 1
x[641] 1
x[642] 0
x[643] 1
x[644] 1
x[645] 9.9999996705882388e-01
x[646] 1
x[647] 1
x[648] 0
x[649] 0
x[650] 1
x[651] 1
x[652] 5.2700647017385749e-07
x[653] 9.8610086927522387e-08
x[654] 0
x[655] 1
x[656] 1
x[657] 0
x[658] 1
x[659] 1
x[660] 0
x[661] 1
x[662] 9.8586612214866970e-08
x[663] 0
x[664] 3.9519988841260008e-07
x[665] 1
x[666] 1
x[667] 3.9514959746494883e-07
x[668] 0
x[669] 1
x[670] 0
x[671] 1
x[672] 0
x[673] 1
x[674] 1
x[675] 1
x[676] 1
x[677] 0
x[678] 1
x[679] 0
x[680] 1
x[681] 1
x[682] 0
x[683] 1
x[684] 0
x[685] 1
x[686] 1
x[687] 1
x[688] 0
x[689] 1.0000002963905181e+00
x[690] 9.9999960803921617e-01
x[691] 1
x[692] 0
x[693] 1
x[694] 1
x[695] 0
x[696] 0
x[697] 1
x[698] 1
x[699] 1
x[700] 1
x[701] 0
x[702] 0
x[703] 1
x[704] 1
x[705] 7.8945090259592485e-07
x[706] 0
x[707] 1
x[708] 0
x[709] 0
x[710] 1
x[711] 0.999999476344951
x[712] 1.0000000327758032e+00
x[713] 1
x[714] 1
x[715] 1
x[716] 0
x[717] 0
x[718] 1
x[719] 1
x[720] 0
x[721] 1
x[722] 1
x[723] 3.2806552869515478e-08
x[724] 1.0000002960546448e+00
x[725] 0
x[726] 1
x[727] 9.9999993411764776e-01
x[728] 1.6313774105781713e-08
x[729] 1
x[730] 1
x[731] 1
x[732] 1.6281593641644166e-08
x[733] 1
x[734] 1
x[735] 1
x[736] 0
x[737] 1
x[738] 0
x[739] 1
x[740] 1
x[741] 0
x[742] 1
x[743] 0
x[744] 1
x[745] 0
x[746] 0
x[747] 1
x[748] 0
x[749] 1
x[750] 0
x[751] 1
x[752] 0
x[753] 0
x[754] 0
x[755] 0
x[756] 3.9522192708286160e-07
x[757] 0
x[758] 9.9999996705882388e-01
x[759] 1
x[760] 1
x[761] 1
x[762] 0
x[763] 0
x[764] 1
x[765] 0
x[766] 1
x[767] 1
x[768] 0
x[769] 3.9523806983112765e-07
x[770] 1
x[771] 0
x[772] 0
x[773] 1
x[774] 1
x[775] 1.6453476907330551e-07
x[776] 0
x[777] 0
x[778] 1
x[779] 1
x[780] 1
x[781] 1
x[782] 0
x[783] 0
x[784] 1
x[785] 0
x[786] 9.9999997039215727e-01
x[787] 1
x[788] 6.5743626382832213e-08
x[789] 0
x[790] 1
x[791] 1
x[792] 1
x[793] 0
x[794] 1
x[795] -2.9535293585971907e-08
x[796] 0
x[797] 0
x[798] 0
x[799] -2.2725490242227993e-07
x[800] 1
x[801] 3.9451312230080903e-07
x[802] 0
x[803] 1
x[804] 1
x[805] 1
x[806] 0
x[807] 1
x[808] 0
x[809] 0
x[810] 1
x[811] 1
x[812] 1
x[813] -2.2719101992657085e-07
x[814] -2.7941176036915822e-08
x[815] 1
x[816] 1
x[817] 1
x[818] 0
x[819] 0
x[820] 0
x[821] 0
x[822] 9.8715650822293507e-08
x[823] 1
x[824] 0
x[825] 1
x[826] 1
x[827] 6.5748259925006751e-08
x[828] 1
x[829] 1
x[830] 1
x[831] 1
x[832] 9.8753763130086075e-08
x[833] 0
x[834] 0
x[835] 0
x[836] 1
x[837] 0
x[838] 1
x[839] 1
x[840] 1
x[841] 1
x[842] 0
x[843] 0
x[844] 1
x[845] 1
x[846] 1
x[847] 1
x[848] 9.9999947294117719e-01
x[849] 1
x[850] 9.9999947627451036e-01
x[851] 0
x[852] 0
x[853] 0
x[854] 9.9999948958673246e-01
x[855] 0
x[856] 0
x[857] 1
x[858] 9.9999960818373590e-01
x[859] 1
x[860] 0
x[861] 0
x[862] 0
x[863] 0
x[864] 0
x[865] 0
x[866] 0
x[867] 3.2850536907550452e-08
x[868] 1
x[869] 1
x[870] 1
x[871] 1
x[872] 0
x[873] 1
x[874] 1
x[875] 0
x[876] 1
x[877] 0
x[878] 0
x[879] 0
x[880] 0
x[881] 1
x[882] 1
x[883] 0
x[884] 1
x[885] 1
x[886] 0
x[887] 1
x[888] 1
x[889] 0
x[890] 0
x[891] 0
x[892] 1
x[893] -1.6470588201557973e-07
x[894] 9.9999947634319508e-01
x[895] 0
x[896] 1
x[897] 0
x[898] 0
x[899] 1
x[900] 1
x[901] 0
x[902] 0
x[903] 0
x[904] 1
x[905] 0
x[906] 0
x[907] 1
x[908] 0
x[909] 6.55913304048107e-08
x[910] 1
x[911] 0
x[912] 0
x[913] 0
x[914] 0
x[915] 1
x[916] 0
x[917] 1
x[918] 0
x[919] 4.2783033351248191e-07
x[920] 0
x[921] 9.9999947632686315e-01
x[922] 0
x[923] 3.9515287442242934e-07
x[924] 0
x[925] 0
x[926] 0
x[927] 1.0000002304889946e+00
x[928] 1
x[929] 0
x[930] 0
x[931] 1
x[932] 3.2868699185805116e-08
x[933] 0
x[934] 1
x[935] 1.0000002305082436e+00
x[936] 0
x[937] 0
x[938] 1
x[939] 1
x[940] 9.9999990450980492e-01
x[941] 1
x[942] 1
x[943] 1
x[944] 0
x[945] 1
x[946] 0
x[947] 1
x[948] 1
x[949] 0
x[950] 0
x[951] 0
x[952] 1.0000000328460106e+00
x[953] 1
x[954] 1.0000006910777224e+00
x[955] 1
x[956] 1
x[957] 1
x[958] 1
x[959] 0
x[960] 2.63470857117568e-07
x[961] 1
x[962] 1
x[963] 0
x[964] 1
x[965] 1
x[966] 1
x[967] 0
x[968] 0
x[969] 0
x[970] 1.0000000328785537e+00
x[971] 1
x[972] 0
x[973] 1
x[974] 0
x[975] 1
x[976] 0
x[977] 0
x[978] 1
x[979] 1
x[980] -2.9545220349996676e-08
x[981] 1
x[982] 0
x[983] 0
x[984] 0
x[985] 1.0000002305237086e+00
x[986] 4.2815851885651957e-07
x[987] 0
x[988] 0
x[989] 9.87592710754873e-08
x[990] 1
x[991] 0
x[992] 1
x[993] 1
x[994] 0
x[995] 0
x[996] 1
x[997] 0
x[998] 0
x[999] -2.3058823564459097e-07
